<instance format="XCSP3" type="SCSP"> 
  <variables> 
    <var id="x1"> 100..105 </var>
    <var id="x2"> 100..105 </var>
    <var id="y1" type="stochastic"> 100..105:1/6 </var>
    <var id="y2" type="stochastic"> 100..105:1/6 </var>
  </variables> 
  <constraints threshold="0.8">  
    <intension> ge(x1,y1) </intension> 
    <intension> ge(x2,add(y2,sub(y1,x1)) </intension> 
  </constraints> 
  <stages>
    <decision> x1 </decision>
    <stochastic> y1 </stochastic>
    <decision> x2 </decision>
    <stochastic> y2 </stochastic>
  </stages>
</instance> 
